# complexe_002 Multiplicity=2
# Generated on 2025-06-03 12:25:56

! UHF PBE0 def2-TZVP RIJCOSX def2/J D3BJ CPCM(water) Opt

%maxcore 2000

%pal
  nprocs 8
end

%scf
  MaxIter 300
  UHF true
  ConvTol 1e-7
end

%geom
  MaxIter 100
  Trust 0.3
end

%output
  Print[P_MOs] 1
  Print[P_Overlap] 1
end

* xyz 2 2
  Cu     0.0000000000     0.0000000000     0.0000000000
  O      1.9500000000     0.0000000000     0.0000000000
  H      2.4500000000     0.4800000000     0.0000000000
  H      2.4500000000    -0.4800000000     0.0000000000
*
