# ligand_004 Multiplicity=1
# Generated on 2025-06-03 11:38:23

! B3LYP def2-SVP RIJCOSX def2/J D3BJ CPCM(water) Opt

%maxcore 2000

%pal
  nprocs 4
end

%scf
  MaxIter 300
  ConvTol 1e-7
end

%geom
  MaxIter 100
  Trust 0.3
end

%output
  Print[P_MOs] 1
  Print[P_Overlap] 1
end

* xyz 0 1
  C      0.2884213275    -0.0938012437     0.9786320236
  C     -0.3020493146     0.1044357353    -0.4233740372
  N     -0.9811174533    -1.1021528255    -0.8753739011
  C     -0.9823515594    -1.2495775564    -2.3154241093
  C     -1.7117329719    -0.1702052370    -3.0894744488
  O     -2.4486942738     0.6630968948    -2.6282923203
  O     -1.4487882935    -0.2468157739    -4.3985923744
  C     -2.2914694074    -1.2464870780    -0.2664538153
  C     -2.9177755793    -2.6092790513    -0.4398558895
  O     -2.6583872384    -3.4389627037    -1.2695762193
  O     -3.8834035831    -2.7931498920     0.4704633775
  N      1.3700347506     0.8522545968     1.2110207278
  C      2.3959472740     0.3250472246     2.0867600705
  C      3.1644055975    -0.8046729070     1.4394038237
  O      3.6546694519    -1.7232919986     2.0408828688
  O      3.2727351517    -0.6687851407     0.1179412614
  C      0.8722378731     2.1458040366     1.6323232872
  C      1.8895980004     3.2624993894     1.4997684650
  O      3.0572611323     3.2129235630     1.7747619420
  O      1.3062099777     4.3818486499     1.0626457709
  H      0.6981238552    -1.1041691487     1.0144394666
  H     -0.4862368450    -0.0139260343     1.7576864869
  H      0.5406558473     0.2909769564    -1.0905846505
  H     -0.9654495103     0.9798075762    -0.4541952116
  H     -1.4487941938    -2.2081168339    -2.5625886250
  H      0.0502533056    -1.2892115392    -2.6698832286
  H     -1.9396839935     0.4333743190    -4.8873099114
  H     -2.2010478408    -1.0735014119     0.8067009592
  H     -3.0197444022    -0.5148559555    -0.6575801806
  H     -4.3105469520    -3.6554051736     0.3419595979
  H      3.1234549532     1.1199958360     2.2777794375
  H      2.0083408486    -0.0318254288     3.0561319029
  H      3.7932748772    -1.4000002926    -0.2515342997
  H      0.5443411400     2.1445908805     2.6912870043
  H      0.0159400378     2.4157376890     1.0139298555
  H      1.9513690108     5.1057998788     1.0055738935
*
