# ligand_004 Multiplicity=1
# Generated on 2025-06-03 11:51:20

! B3LYP def2-SVP RIJCOSX def2/J D3BJ Opt Freq

%maxcore 2000

%pal
  nprocs 4
end

%scf
  MaxIter 300
  ConvTol 1e-7
end

%geom
  MaxIter 100
  Trust 0.3
end

%output
  Print[P_MOs] 1
  Print[P_Overlap] 1
end

* xyz 0 1
  C      0.2884213826    -0.0938012125     0.9786319519
  C     -0.3020491928     0.1044356771    -0.4233741441
  N     -0.9811174149    -1.1021528873    -0.8753738912
  C     -0.9823515154    -1.2495777718    -2.3154240849
  C     -1.7117328705    -0.1702055135    -3.0894745578
  O     -2.4486940446     0.6630967771    -2.6282925066
  O     -1.4487882333    -0.2468162320    -4.3985924814
  C     -2.2914693940    -1.2464869691    -0.2664537994
  C     -2.9177757412    -2.6092788535    -0.4398558678
  O     -2.6583875286    -3.4389625534    -1.2695762033
  O     -3.8834037555    -2.7931495595     0.4704634224
  N      1.3700347825     0.8522546515     1.2110206640
  C      2.3959473752     0.3250472608     2.0867599132
  C      3.1644056519    -0.8046728695     1.4394036251
  O      3.6546695541    -1.7232919455     2.0408826565
  O      3.2727350450    -0.6687851685     0.1179410461
  C      0.8722378708     2.1458040206     1.6323233749
  C      1.8895978879     3.2624994857     1.4997686626
  O      3.0572611393     3.2129235766     1.7747616597
  O      1.3062096252     4.3818489269     1.0626466950
  H      0.6981239029    -1.1041691146     1.0144394908
  H     -0.4862368271    -0.0139259649     1.7576863685
  H      0.5406560093     0.2909767655    -1.0905847401
  H     -0.9654493112     0.9798075669    -0.4541954192
  H     -1.4487942217    -2.2081170512    -2.5625884845
  H      0.0502533546    -1.2892118787    -2.6698831867
  H     -1.9396838510     0.4333738745    -4.8873100749
  H     -2.2010477781    -1.0735013168     0.8067009775
  H     -3.0197442830    -0.5148557227    -0.6575801586
  H     -4.3105472164    -3.6554048041     0.3419596889
  H      3.1234550743     1.1199958672     2.2777792164
  H      2.0083410308    -0.0318253763     3.0561317834
  H      3.7932747327    -1.4000003353    -0.2515345376
  H      0.5443411412     2.1445907446     2.6912870972
  H      0.0159400045     2.4157377053     1.0139300054
  H      1.9513686144     5.1058002005     1.0055748387
*
