# complexe_001 Multiplicity=2
# Generated on 2025-06-03 11:38:23

! UHF B3LYP def2-SVP RIJCOSX def2/J D3BJ CPCM(water) Opt

%maxcore 2000

%pal
  nprocs 4
end

%scf
  MaxIter 300
  UHF true
  ConvTol 1e-7
end

%geom
  MaxIter 100
  Trust 0.3
end

%output
  Print[P_MOs] 1
  Print[P_Overlap] 1
end

* xyz 2 2
  C      3.1635220254     1.4660235812     0.8192459933
  C      1.3060263394     0.8916331317     2.4355606029
  N     -1.8386822958     1.0404817084    -2.2081331504
  C     -2.7973024360     0.2212254833     2.2883385807
  C     -2.1918020940     2.5300537890     2.3785561082
  O      1.9135916186     3.1421425681    -1.5806285828
  O     -3.4886812495     2.9598745189     2.3551863885
  C     -0.9288230631    -2.7794195428    -2.4647726625
  C     -0.7352313904    -3.8112874046    -1.3635521926
  O      0.5496436788    -3.7032756056    -0.7652633460
  O     -1.6698883423    -3.5579403846    -0.3460903395
  N      4.0449771631     0.8039015827     1.7485851899
  C      1.7272547300     1.3810802306     1.2702988964
  C     -1.2593974981     0.7530390663    -1.2495025877
  O     -2.0344206508     1.2773953580     1.6958120948
  O     -1.5701372972    -1.1919079944     0.8023663519
  C     -2.8908704964    -0.9015208678     1.2654818790
  C      1.8838140821     0.1212757722    -3.0349749122
  O      0.7801467894     1.8196843830     0.3638636199
  O      1.1632329396    -1.2126924118     0.1091873821
  H      3.2551757311     0.9725465709    -0.1545626674
  H      3.4036001148     2.5336549672     0.6678922070
  H      1.9970524301     0.4892201013     3.1516549886
  H      1.8365080172    -1.3348882483     0.7856612125
  H     -3.7942089957     0.5891925787     2.5477832395
  H     -2.2905197025    -0.1276201612     3.1973667467
  H     -3.7363276068     3.3517370601     1.5087581113
  H     -0.7424935274    -1.7797161730    -2.0736289973
  H     -0.2436615662    -2.9785897747    -3.2824805444
  H     -1.6519435251    -4.2794536816     0.2976700503
  H      2.8917211292     0.5051172221    -2.9464640420
  H      0.2652855664     0.9348482883     2.7185199977
  H     -1.5957625063    -2.0627014698     0.3052160231
  H     -3.3141290941    -1.7931203883     1.7359961066
  H      1.4180057127     0.0576676540    -2.0571894377
  H      0.9516085369    -2.1114629946    -0.2296138420
  Co    -0.4541966876     0.3251191402     0.3319414323
  H     -1.4864129477     3.2070877191     1.8814009221
  H      1.8801193409     4.1015353615    -1.6379128995
  H     -0.8777675098    -4.8257133485    -1.7581964110
  H      1.1961208943    -4.2296729606    -1.2467651346
  H      4.9671410531     0.6502063402     1.3627321578
  H      4.1329726762     1.2972814200     2.6280749311
  H      1.9318701747    -0.8647797754    -3.4764325964
  H     -1.9460046625    -2.8424696323    -2.8370140037
  H      2.1381476540     2.8120633765    -2.4559976365
  H     -1.9215776156     2.4043223116     3.4360061334
  H     -2.3372583676     1.2898904063    -3.0379695281
  H      1.3013700969     0.7635647765    -3.6825820442
  H      1.2214005181     2.2944970811    -0.4034837458
  H     -3.5228048843    -0.5991317292     0.4229549571
*
