# complexe_003 Multiplicity=4
# Generated on 2025-06-03 11:38:23

! UHF B3LYP def2-SVP RIJCOSX def2/J D3BJ CPCM(water) Opt

%maxcore 2000

%pal
  nprocs 4
end

%scf
  MaxIter 300
  UHF true
  ConvTol 1e-7
end

%geom
  MaxIter 100
  Trust 0.3
end

%output
  Print[P_MOs] 1
  Print[P_Overlap] 1
end

* xyz 2 4
  C      1.0874457039    -1.2766847057     1.3627388307
  C     -1.4278540672    -1.1472401828    -0.1846522769
  N     -1.6452911782     0.1488564326     0.1225119897
  C     -2.1248073272     0.4629327820     1.4654231867
  C     -3.6550605469     0.2210427702     1.5728267186
  O     -3.8904898691    -1.0548530460     1.0624888639
  O     -4.3066021425     1.2205131672     0.8576596801
  C     -2.1470618511     1.0731632477    -0.8987655409
  C     -1.2528813774     1.1291293436    -2.1443198312
  O     -1.3520376839    -0.0512197367    -2.8647856567
  O      0.0764389369     1.3090473327    -1.6651277647
  N      2.1111713344    -0.7585370134     0.6099197280
  C      2.9100775614     0.3619388086     1.1101455506
  C      2.0837476106     1.4835540274     1.7789964077
  O      0.8561180308     1.6652240837     1.0654991366
  O      2.8474664380     2.6196007721     1.7161033455
  C      2.8831097984    -1.6720891360    -0.2322679470
  C      2.5985737879    -1.4308371141    -1.7312245225
  O      1.1870528744    -1.2691244718    -1.8873001837
  O      3.0452641465    -2.5274945707    -2.4138895209
  H      0.9548041166    -2.3538950380     1.3219246371
  H      0.9411261063    -0.8526819383     2.3513742465
  H     -1.6356004838    -1.8847953294     0.5837290363
  H     -1.6332782378    -1.4476917203    -1.2081994461
  H     -1.6367308557    -0.1911064026     2.1873825799
  H     -1.9216352569     1.5058010818     1.7073531544
  H     -5.2467545908     1.2639801131     1.0726417179
  H     -3.1552853672     0.7685335263    -1.1945917324
  H     -2.2051265143     2.0715048359    -0.4645243398
  H      0.6849892464     1.3199981347    -2.4161706939
  H      3.4398169977     0.8273026180     0.2735628972
  H      3.6550603126     0.0021747773     1.8276683164
  H      2.6420124149     3.2621500313     2.4071318643
  H      3.9530482581    -1.5637387686    -0.0480216169
  H      2.6065051067    -2.7095983526    -0.0286345762
  H      3.2502695639    -2.3549754331    -3.3414281129
  Co     0.2868126988    -0.2306385098    -0.0274429700
  H     -3.9175675593     0.2719610677     2.6445186774
  H     -4.8179145463    -1.3073198627     1.1530139982
  H     -1.5429110251     2.0036765892    -2.7451031466
  H     -1.2353961259     0.0801289364    -3.8133209754
  H      1.7957569395     1.2135060867     2.8049702102
  H      0.9879455132     2.4118470458     0.4594469127
  H      3.0467722128    -0.4833086741    -2.0670717920
  H      0.8188998960    -2.1297376051    -2.1421900399
*
