# ligand_005 Multiplicity=1
# Generated on 2025-06-03 11:51:20

! B3LYP def2-SVP RIJCOSX def2/J D3BJ Opt Freq

%maxcore 2000

%pal
  nprocs 4
end

%scf
  MaxIter 300
  ConvTol 1e-7
end

%geom
  MaxIter 100
  Trust 0.3
end

%output
  Print[P_MOs] 1
  Print[P_Overlap] 1
end

* xyz 0 1
  C     -0.5074272904     0.2462704525     0.7868794940
  C      0.4537606395     0.6842320191    -0.3283139870
  N      1.8286680070     0.4471565572     0.0831990852
  C      2.5596301383    -0.4357578749    -0.7944417724
  C      1.9692873634    -1.8286941628    -0.7847639959
  O      1.3694490810    -2.3450092247     0.1178103283
  O      2.2254858980    -2.4601632316    -1.9350173021
  C      2.5655747362     1.6401988827     0.4541128705
  C      3.6507177289     1.2508039704     1.4425957124
  O      4.6615798464     0.6610049064     1.1689332562
  O      3.3466188363     1.6236102394     2.6846179424
  N     -1.8640350481     0.1692511286     0.2676345166
  C     -2.4686332319    -1.1352430052     0.3973533029
  C     -1.7380970639    -2.1627117820    -0.4389378166
  O     -1.1185525981    -1.9557608922    -1.4460772786
  O     -1.8891874978    -3.3872392284     0.0761337276
  C     -2.7328264811     1.2565171392     0.6763086144
  C     -3.8059859197     1.4428119262    -0.3819409383
  O     -4.7391154429     0.7072957666    -0.5632025043
  O     -3.5875214246     2.5273796215    -1.1236418283
  H     -0.1774295157    -0.7400451591     1.1190995129
  H     -0.4371501658     0.9271636261     1.6425089988
  H      0.2828775117     1.7342156705    -0.5909398404
  H      0.2161891485     0.0793117943    -1.2056672955
  H      2.5971974261    -0.0844455543    -1.8393196458
  H      3.5886993550    -0.5241965284    -0.4302659930
  H      1.8322650260    -3.3466406221    -1.9323030581
  H      1.8883257192     2.3321126149     0.9539377309
  H      3.0344400352     2.1379996534    -0.4131344490
  H      4.0237164333     1.3212127629     3.3122656065
  H     -3.4950410111    -1.0886094017     0.0181934806
  H     -2.5060974197    -1.5007307200     1.4373717714
  H     -1.4071595679    -4.0416178618    -0.4529303856
  H     -3.2200008858     1.0694420787     1.6496851734
  H     -2.1486240596     2.1748354235     0.7276183151
  H     -4.2515963057     2.6040400148    -1.8286103492
*
