# complexe_004 Multiplicity=2
# Generated on 2025-06-04 20:57:56

! UHF B3LYP def2-SVP RIJCOSX def2/J D3BJ Opt Freq

%maxcore 2000

%pal
  nprocs 4
end

%scf
  MaxIter 300
  UHF true
  ConvTol 1e-7
end

%geom
  MaxIter 100
  Trust 0.3
end

%output
  Print[P_MOs] 1
  Print[P_Overlap] 1
end

* xyz 2 2
  C     -0.5579641646     1.4385898776     1.2870752176
  C      0.4456273898     1.8910329129     0.2157911348
  N      1.3647880212     0.8007292222    -0.1485001634
  C      1.9751926315     0.9208114249    -1.4732361635
  C      2.2463240815    -0.4787619645    -2.0166860769
  O      1.6682969490    -1.4571170800    -1.5713665742
  O      3.1238637111    -0.5150737810    -2.9664516878
  C      2.3794758653     0.5412337002     0.8859135311
  C      2.1468524054    -0.8176818897     1.5060580266
  O      1.1752322751    -1.5003448989     1.1818015241
  O      3.0144505613    -1.1791879896     2.3934423517
  N     -1.3461156638     0.2840486729     0.8258225427
  C     -1.9112874066    -0.5460578567     1.8899793265
  C     -2.0155118513    -1.9838955112     1.3890909499
  O     -1.3653223185    -2.3723401018     0.4318656957
  O     -2.8361096861    -2.7205339683     2.0649210895
  C     -2.3698009956     0.6530825606    -0.1662512007
  C     -2.0294224559     0.0453435499    -1.5080422796
  O     -0.9785368601    -0.5742497385    -1.6712688154
  O     -2.8963861419     0.2478227656    -2.4456850635
  H     -0.0215046317     1.1470421669     2.1911052154
  H     -1.2080575176     2.2836644933     1.5434988392
  H      0.9953289227     2.7629387577     0.5899100803
  H     -0.0921378499     2.1980600991    -0.6822419024
  H      1.2821989507     1.3961612711    -2.1730961138
  H      2.8996619161     1.5095872235    -1.4765228670
  H      3.2788958926    -1.4009029559    -3.3478390253
  H      2.3610908326     1.2995023628     1.6767292282
  H      3.3937555436     0.5542903943     0.4734377902
  H      2.8847664631    -2.0725214612     2.7661867758
  H     -2.8903128602    -0.2005361261     2.2407272397
  H     -1.2430790870    -0.5673919611     2.7554640958
  H     -2.8834371191    -3.6523574010     1.7753818977
  H     -3.3645075616     0.2986921029     0.1242587595
  H     -2.4530481815     1.7398733676    -0.2815163742
  H     -2.6938223076    -0.1783182195    -3.3010555742
  Co     0.0993222479    -1.0169240208    -0.2385314300
*
