# complexe_003 Multiplicity=2
# Generated on 2025-06-03 11:51:20

! UHF B3LYP def2-SVP RIJCOSX def2/J D3BJ Opt Freq

%maxcore 2000

%pal
  nprocs 4
end

%scf
  MaxIter 300
  UHF true
  ConvTol 1e-7
end

%geom
  MaxIter 100
  Trust 0.3
end

%output
  Print[P_MOs] 1
  Print[P_Overlap] 1
end

* xyz 2 2
  C      1.0864605811    -1.2756103531     1.3630429648
  C     -1.4283296440    -1.1457660105    -0.1874940528
  N     -1.6451443419     0.1498686061     0.1219158879
  C     -2.1244514066     0.4617346412     1.4654167246
  C     -3.6543729691     0.2181377254     1.5735749457
  O     -3.8881795805    -1.0587036062     1.0648527754
  O     -4.3076428084     1.2157909369     0.8575219103
  C     -2.1459727207     1.0764529053    -0.8977227764
  C     -1.2528606608     1.1323778347    -2.1441325655
  O     -1.3548943087    -0.0464602575    -2.8666130593
  O      0.0774603156     1.3089155684    -1.6663176506
  N      2.1108940089    -0.7583816227     0.6105146784
  C      2.9099344556     0.3620432048     1.1106531613
  C      2.0835988008     1.4846871073     1.7778143063
  O      0.8562847179     1.6660340790     1.0637019003
  O      2.8477699165     2.6203727596     1.7139235519
  C      2.8827678337    -1.6727823121    -0.2307799812
  C      2.5987311234    -1.4329530618    -1.7301358341
  O      1.1873553730    -1.2702398487    -1.8866966613
  O      3.0444165705    -2.5308421577    -2.4114465314
  H      0.9533049307    -2.3527863155     1.3227083346
  H      0.9399304732    -0.8510410643     2.3514033967
  H     -1.6364582932    -1.8845802644     0.5795557593
  H     -1.6336462096    -1.4442411435    -1.2116391459
  H     -1.6354143525    -0.1927633358     2.1863116848
  H     -1.9222045923     1.5044703805     1.7085663921
  H     -5.2476581044     1.2584665730     1.0732755586
  H     -3.1550614834     0.7742151595    -1.1930722047
  H     -2.2017940134     2.0743307062    -0.4620878057
  H      0.6852059848     1.3167431742    -2.4180773380
  H      3.4407925345     0.8264825560     0.2742832216
  H      3.6539682581     0.0023820102     1.8292106954
  H      2.6413184286     3.2644157285     2.4032751956
  H      3.9526709923    -1.5644860686    -0.0464138371
  H      2.6058783603    -2.7100459588    -0.0262962656
  H      3.2514787243    -2.3594033893    -3.3387211005
  Co     0.2867815468    -0.2301443681    -0.0281204213
  H     -3.9164556416     0.2698197652     2.6453409591
  H     -4.8154789144    -1.3118265598     1.1548017454
  H     -1.5416589945     2.0085461205    -2.7431302570
  H     -1.2398993244     0.0865671225    -3.8151377006
  H      1.7950779963     1.2159207610     2.8039678228
  H      0.9889470167     2.4113842561     0.4562384283
  H      3.0477966844    -0.4862157466    -2.0669742458
  H      0.8187517362    -2.1308862371    -2.1408635667
*
