# complexe_004 Multiplicity=4
# Generated on 2025-06-03 11:51:20

! UHF B3LYP def2-SVP RIJCOSX def2/J D3BJ Opt Freq

%maxcore 2000

%pal
  nprocs 4
end

%scf
  MaxIter 300
  UHF true
  ConvTol 1e-7
end

%geom
  MaxIter 100
  Trust 0.3
end

%output
  Print[P_MOs] 1
  Print[P_Overlap] 1
end

* xyz 2 4
  C      1.1915235398    -0.7052453252     1.3469567302
  C     -1.4234443552    -1.1379060906    -0.2289572857
  N     -1.7673842635     0.1141458254     0.1811319118
  C     -2.1873952630     0.2987038080     1.5687923658
  C     -3.5917208291    -0.3076330925     1.8434801432
  O     -3.5097135996    -1.6634989295     1.5364738235
  O     -4.5368141757     0.3663555301     1.0775507533
  C     -2.4558655910     1.0309283608    -0.7357045892
  C     -1.9226804825     0.9996845283    -2.1760538654
  O     -2.2878202797    -0.1708144953    -2.8251229005
  O     -0.5068234009     1.0925925304    -2.0820847790
  N      2.4750023811    -0.5835279040     0.9508360572
  C      3.2128300790     0.6444645167     1.1396245868
  C      2.3563557293     1.9360267816     1.0334009012
  O      1.3151076604     1.7862418029     0.0624059125
  O      3.2180942695     2.9286394734     0.6464526036
  C      3.0783682210    -1.6011316618     0.1432116386
  C      2.8208419169    -1.3561800956    -1.3866382675
  O      1.4645761619    -1.0494902308    -1.6026309066
  O      3.0681462791    -2.5010214023    -2.1116710809
  H      0.8705739941    -1.7377781706     1.4730357535
  H      0.9202887570    -0.0479710859     2.1713318163
  H     -1.4751531818    -1.9212700467     0.5206036907
  H     -1.7370831073    -1.4286209973    -1.2276765928
  H     -1.4976343379    -0.2213817313     2.2339114935
  H     -2.2191001876     1.3606948475     1.8129416538
  H     -5.4367280773     0.1952077063     1.3827161458
  H     -3.5227460354     0.7820834837    -0.7415610000
  H     -2.3393481957     2.0470895668    -0.3535268783
  H     -0.1137407492     0.9613010895    -2.9552717207
  H      3.9944462082     0.7285372080     0.3813941580
  H      3.7016497673     0.6443330114     2.1198372572
  H      2.9381621427     3.8117610293     0.9184191123
  H      4.1541760137    -1.6399914501     0.3217382241
  H      2.6424000888    -2.5738880413     0.3845924960
  H      4.0040551792    -2.6860250261    -2.2447763695
  Co     0.1092079145     0.0126510088    -0.2015854629
  H     -3.7898160857    -0.1625169317     2.9214120029
  H     -4.3522837361    -2.1119653447     1.6822192696
  H     -2.3078963122     1.8887892377    -2.6981284538
  H     -2.5256097315    -0.0327087794    -3.7492487278
  H      1.8464745645     2.1483839549     1.9836340258
  H      1.6250237510     2.1932425351    -0.7616168292
  H      3.4112864628    -0.4905448213    -1.7310108745
  H      1.0882108960    -1.8407461821    -2.0248389429
*
