# complexe_001 Multiplicity=4
# Generated on 2025-06-04 20:57:56

! UHF B3LYP def2-SVP RIJCOSX def2/J D3BJ Opt Freq

%maxcore 2000

%pal
  nprocs 4
end

%scf
  MaxIter 300
  UHF true
  ConvTol 1e-7
end

%geom
  MaxIter 100
  Trust 0.3
end

%output
  Print[P_MOs] 1
  Print[P_Overlap] 1
end

* xyz 2 4
  C     -0.5799952393     1.4719086613     1.2740893781
  C      0.4204723883     1.9198311773     0.1978973267
  N      1.3443900208     0.8305420095    -0.1585770097
  C      1.9534513342     0.9440236133    -1.4844465264
  C      2.2323676752    -0.4579924479    -2.0177314098
  O      1.6599902220    -1.4362253937    -1.5650351857
  O      3.1096331602    -0.4965777636    -2.9671355104
  C      2.3614570051     0.5848798943     0.8773433925
  C      2.1386649567    -0.7722376273     1.5056777053
  O      1.1696642075    -1.4618248496     1.1885319499
  O      3.0117110234    -1.1244444060     2.3919931597
  N     -1.3627870255     0.3096895312     0.8234516553
  C     -1.9217539756    -0.5157773734     1.8946735452
  C     -2.0166574211    -1.9579107636     1.4052002774
  O     -1.3650308719    -2.3497354315     0.4503415001
  O     -2.8319456109    -2.6945114592     2.0874351452
  C     -2.3890691533     0.6647288510    -0.1703937127
  C     -2.0468345591     0.0476663006    -1.5074811496
  O     -0.9928237654    -0.5675302280    -1.6672723817
  O     -2.9162748933     0.2373143975    -2.4456273823
  H     -0.0414190729     1.1908526955     2.1802175817
  H     -1.2339892043     2.3161345278     1.5235639387
  H      0.9668734044     2.7972210547     0.5641478127
  H     -0.1196591644     2.2172022295    -0.7020868332
  H      1.2579525906     1.4113914137    -2.1874833732
  H      2.8753325602     1.5372057484    -1.4927196221
  H      3.2688361963    -1.3843919377    -3.3426449944
  H      2.3362363824     1.3478337640     1.6641420842
  H      3.3760938148     0.6040504465     0.4645365355
  H      2.8882882324    -2.0158873883     2.7719376985
  H     -2.9032913625    -0.1742405854     2.2431445296
  H     -1.2531077017    -0.5248774036     2.7601318781
  H     -2.8738631695    -3.6290737877     1.8060637553
  H     -3.3819913440     0.3081860624     0.1237710974
  H     -2.4781771453     1.7500472979    -0.2953623529
  H     -2.7103140083    -0.1925867856    -3.2981376740
  Co     0.0889695137    -0.9934240444    -0.2324068287
*
