# complexe_002 Multiplicity=4
# Generated on 2025-06-03 11:51:20

! UHF B3LYP def2-SVP RIJCOSX def2/J D3BJ Opt Freq

%maxcore 2000

%pal
  nprocs 4
end

%scf
  MaxIter 300
  UHF true
  ConvTol 1e-7
end

%geom
  MaxIter 100
  Trust 0.3
end

%output
  Print[P_MOs] 1
  Print[P_Overlap] 1
end

* xyz 2 4
  C      1.1946615862    -2.9724619763     2.5119953233
  C      1.0801840700    -3.2884387647    -1.7469148814
  N      0.9851502330    -2.0356515739    -0.9863466683
  C      2.2287428716    -0.9764198310     1.8217284662
  C      2.7383540994     0.0357997513     0.8315379798
  O      1.0274050156     3.2637130204     0.2803273328
  O      3.6567098693     2.2113906150     1.0780406278
  C     -3.9743315219     1.0704349005     0.5888584127
  C     -2.8615545135     1.4223100103    -0.4417811985
  O     -1.3986453946    -0.5464149613    -0.4953366701
  O      0.0607654269     0.8957561241     1.5852743046
  N      1.5993271102    -2.0229145778     1.5226033546
  C     -3.8034671508    -0.4177121186     0.2081850681
  C     -2.4932418072    -0.0302716921    -0.3850165906
  O     -1.7772707182     2.2565651501    -0.1024318866
  O     -4.8393249858     1.0692015370    -2.7511400774
  C      1.9868713644    -1.0362364253    -1.3792149770
  C      1.9923464624     0.2463019033    -0.5221800350
  O      2.7814039722     1.2302454146     1.6080665419
  O      2.6825562677     1.1843099096    -1.2888964731
  H      1.1653689544    -2.1836224320     0.0971108623
  H      0.1162832251    -3.1074695478     2.4339192981
  H      0.3146554966    -3.9819601193    -1.4086842778
  H      0.9449959872    -3.1081643263    -2.8120376058
  H      2.4911870264    -0.7285736187     2.8529413697
  H      0.7856722748     1.3373353452     2.0500184680
  H      4.3967826537     2.2705719975     1.7056154774
  H     -4.5220343483    -0.7281785662    -0.5482778968
  H     -3.6741116954     1.2761824373     1.6128891775
  H     -0.7452751916     1.3547591768     1.8540214618
  H     -3.7761732124    -1.1657391320     0.9970632166
  H     -4.9457355564     1.5104320744     0.3913512019
  H     -5.7486820080     1.3646405587    -2.6473515519
  H      1.8477130960    -0.7312942622    -2.4194164532
  H      2.9743327029    -1.5051672150    -1.3093808161
  H      3.2025588732     1.7856837748    -0.7325907494
  Co     0.2342418147     1.1748998584    -0.4349835477
  H      1.4577185439    -2.6776336931     3.5288901955
  H      1.6634247281    -3.9288006206     2.2788679957
  H      2.0562963842    -3.7430388535    -1.5931898966
  H      3.7749451327    -0.2572343234     0.5796310469
  H      0.9518737763     4.0541063810    -0.2598555680
  H     -3.3125266294     1.6813176340    -1.4064745642
  H     -4.7494457730     0.8322162973    -3.6784912828
  H      0.0061616643     0.9617687163    -1.9413077798
  H     -2.0099866833     3.1812598130    -0.2421158497
  H      0.2861343043     1.8548739492    -1.8121980481
  H      1.9054953410     3.2891483600     0.6779206979
  H      0.0414868609    -1.6418250789    -1.0683205355
*
