# ligand_001 Multiplicity=1
# Generated on 2025-06-03 11:51:20

! B3LYP def2-SVP RIJCOSX def2/J D3BJ Opt Freq

%maxcore 2000

%pal
  nprocs 4
end

%scf
  MaxIter 300
  ConvTol 1e-7
end

%geom
  MaxIter 100
  Trust 0.3
end

%output
  Print[P_MOs] 1
  Print[P_Overlap] 1
end

* xyz 0 1
  C     -0.5563411735     0.2965580585     1.7425581777
  C      0.8536841653     0.7149133210     1.2789623718
  N      1.3948747258    -0.1668490363     0.2555731694
  C      1.8185201852    -1.4457460045     0.7817364956
  C      1.8367805328    -2.5183263107    -0.2811952279
  O      1.4617705274    -2.4053746188    -1.4159575509
  O      2.3401083780    -3.6608292444     0.2015789600
  C      2.4259573376     0.4441776794    -0.5525350535
  C      1.9076951366     1.5257727927    -1.4723208291
  O      0.7713914276     1.8943097432    -1.5910803269
  O      2.9108103244     2.0605852161    -2.1783464525
  N     -1.6236714340     0.4074182398     0.7706718987
  C     -1.8686160093     1.7737727266     0.3466565323
  C     -3.2769653294     2.0044408483    -0.1518198338
  O     -4.0196282950     1.2053798756    -0.6522489165
  O     -3.6212711161     3.2944797137    -0.0009131767
  C     -1.5292271131    -0.4855076305    -0.3730615430
  C     -1.5310527418    -1.9566904121    -0.0606182864
  O     -1.1324840290    -2.5132914760     0.9324115761
  O     -2.0110875955    -2.6465777290    -1.0999647181
  H     -0.8252365996     0.9280981487     2.5946464529
  H     -0.5536685425    -0.7361819194     2.0870510001
  H      1.5152989926     0.7549185889     2.1625985452
  H      0.7985230094     1.7186666425     0.8571817631
  H      1.0973070120    -1.7870577791     1.5270106871
  H      2.8109184539    -1.4138442924     1.2654882268
  H      2.3104883867    -4.3569094235    -0.4738720761
  H      2.8555939553    -0.3195390656    -1.2064877182
  H      3.2521125081     0.8775798480     0.0423817542
  H      2.5738071548     2.7357314411    -2.7890672675
  H     -1.1988432788     2.0904508917    -0.4715771203
  H     -1.7125280954     2.4495098612     1.1897296189
  H     -4.5103922675     3.4458163988    -0.3598002538
  H     -2.3915304425    -0.2995258581    -1.0152731836
  H     -0.6126816427    -0.3101306232    -0.9613474354
  H     -1.9604155078    -3.6002006121    -0.9287492596
*
